p cnf 87 134                                     
-32 0
16 24 32 0
18 26 34 0
20 28 36 0
22 30 38 0
40 48 56 0
42 50 58 0
44 52 60 0
46 54 62 0
64 72 80 0
66 74 82 0
68 76 84 0
70 78 86 0
1 0
-1 -24 6 0
-1 -32 11 0
-1 -26 6 0
-1 -34 11 0
-1 -30 6 0
-1 -38 11 0
-1 -28 6 0
-1 -36 11 0
-6 -40 1 0
-6 -56 11 0
-6 -42 1 0
-6 -58 11 0
-6 -46 1 0
-6 -62 11 0
-6 -44 1 0
-6 -60 11 0
-11 -64 1 0
-11 -72 6 0
-11 -66 1 0
-11 -74 6 0
-11 -70 1 0
-11 -78 6 0
-11 -68 1 0
-11 -76 6 0
-1 -20 -21 0
-1 -28 2 0
-1 -36 4 0
-2 -44 -45 0
-2 -60 4 0
-4 -68 -69 0
-4 -76 2 0
-7 -28 -29 0
-7 -36 9 0
-6 -44 7 0
-6 -52 -53 0
-6 -60 9 0
-9 -68 7 0
-9 -76 -77 0
-12 -28 14 0
-12 -36 -37 0
-14 -44 12 0
-14 -60 -61 0
-11 -68 12 0
-11 -76 14 0
-11 -84 -85 0
-1 -16 17 0
-1 -18 19 0
-1 -22 23 0
-1 -24 25 3 0
-1 -26 27 3 0
-1 -30 31 3 0
-1 -32 33 5 0
-1 -34 35 5 0
-1 -38 39 5 0
-1 -28 29 3 0
-1 -36 37 5 0
-3 -40 41 0
-3 -42 43 0
-3 -46 47 0
-3 -56 57 5 0
-3 -58 59 5 0
-3 -62 63 5 0
-3 -60 61 5 0
-5 -64 65 0
-5 -66 67 0
-5 -70 71 0
-5 -72 73 3 0
-5 -74 75 3 0
-5 -78 79 3 0
-5 -76 77 3 0
-8 -24 25 0
-8 -26 27 0
-8 -30 31 0
-8 -32 33 10 0
-8 -34 35 10 0
-8 -38 39 10 0
-8 -36 37 10 0
-6 -40 41 8 0
-6 -42 43 8 0
-6 -46 47 8 0
-6 -48 49 0
-6 -50 51 0
-6 -54 55 0
-6 -56 57 10 0
-6 -58 59 10 0
-6 -62 63 10 0
-6 -44 45 8 0
-6 -60 61 10 0
-10 -64 65 8 0
-10 -66 67 8 0
-10 -70 71 8 0
-10 -72 73 0
-10 -74 75 0
-10 -78 79 0
-10 -68 69 8 0
-13 -24 25 15 0
-13 -26 27 15 0
-13 -30 31 15 0
-13 -32 33 0
-13 -34 35 0
-13 -38 39 0
-13 -28 29 15 0
-15 -40 41 13 0
-15 -42 43 13 0
-15 -46 47 13 0
-15 -56 57 0
-15 -58 59 0
-15 -62 63 0
-15 -44 45 13 0
-11 -64 65 13 0
-11 -66 67 13 0
-11 -70 71 13 0
-11 -72 73 15 0
-11 -74 75 15 0
-11 -78 79 15 0
-11 -80 81 0
-11 -82 83 0
-11 -86 87 0
-11 -68 69 13 0
-11 -76 77 15 0
